\ENCODING=ISO-8859-1
\Problem name: IloCplex

Minimize
 obj: 778 x_10 + 94 x_11 + 288 x_12 + 948 x_13 + 740 x_14 + 902 x_15 + 270 x_16
      + 578 x_17 + 772 x_18 + 751 x_19 + 395 x_20 + 893 x_21 + 640 x_22
      + 46 x_23 + 152 x_24 + 714 x_25 + 847 x_26 + 765 x_27 + 408 x_28
      + 67 x_29 + 931 x_30 + 716 x_31
Subject To
 c1:   y_01 + y_10 - x_0  = 0
 c2:   y_02 + y_20 - x_1  = 0
 c3:   y_03 + y_30 - x_2  = 0
 c4:   y_04 + y_40 - x_3  = 0
 c5:   y_05 + y_50 - x_4  = 0
 c6:   y_06 + y_60 - x_5  = 0
 c7:   y_07 + y_70 - x_6  = 0
 c8:   y_08 + y_80 - x_7  = 0
 c9:   y_09 + y_90 - x_8  = 0
 c10:  y_010 + y_100 - x_9  = 0
 c11:  y_12 + y_21 - x_10  = 0
 c12:  y_13 + y_31 - x_11  = 0
 c13:  y_14 + y_41 - x_12  = 0
 c14:  y_18 + y_81 - x_13  = 0
 c15:  y_24 + y_42 - x_14  = 0
 c16:  y_29 + y_92 - x_15  = 0
 c17:  y_36 + y_63 - x_16  = 0
 c18:  y_37 + y_73 - x_17  = 0
 c19:  y_45 + y_54 - x_18  = 0
 c20:  y_47 + y_74 - x_19  = 0
 c21:  y_49 + y_94 - x_20  = 0
 c22:  y_59 + y_95 - x_21  = 0
 c23:  y_510 + y_105 - x_22  = 0
 c24:  y_67 + y_76 - x_23  = 0
 c25:  y_68 + y_86 - x_24  = 0
 c26:  y_69 + y_96 - x_25  = 0
 c27:  y_610 + y_106 - x_26  = 0
 c28:  y_78 + y_87 - x_27  = 0
 c29:  y_79 + y_97 - x_28  = 0
 c30:  y_710 + y_107 - x_29  = 0
 c31:  y_89 + y_98 - x_30  = 0
 c32:  y_910 + y_109 - x_31  = 0
 c33:  f_01 - f_10 + f_21 - f_12 + f_31 - f_13 + f_41 - f_14 + f_81 - f_18 <= 1
 c34:  f_01 - f_10 <= 1
 c35:  - f_21 + f_12 + f_02 - f_20 + f_42 - f_24 + f_92 - f_29 <= 1
 c36:  f_01 - f_10 - f_21 + f_12 + f_02 - f_20 <= 1
 c37:  - f_31 + f_13 + f_03 - f_30 + f_63 - f_36 + f_73 - f_37 <= 1
 c38:  f_01 - f_10 - f_21 + f_12 - f_31 + f_13 + f_02 - f_20 + f_03 - f_30 <= 1
 c39:  - f_41 + f_14 - f_42 + f_24 + f_04 - f_40 + f_54 - f_45 + f_74 - f_47
       + f_94 - f_49 <= 1
 c40:  f_01 - f_10 - f_21 + f_12 - f_31 + f_13 - f_41 + f_14 + f_02 - f_20
       - f_42 + f_24 + f_03 - f_30 + f_04 - f_40 <= 1
 c41:  - f_54 + f_45 + f_05 - f_50 + f_95 - f_59 + f_105 - f_510 <= 1
 c42:  f_01 - f_10 - f_21 + f_12 - f_31 + f_13 - f_41 + f_14 + f_02 - f_20
       - f_42 + f_24 + f_03 - f_30 + f_04 - f_40 - f_54 + f_45 + f_05 - f_50
       <= 1
 c43:  - f_63 + f_36 + f_06 - f_60 + f_76 - f_67 + f_86 - f_68 + f_96 - f_69
       + f_106 - f_610 <= 1
 c44:  f_01 - f_10 - f_21 + f_12 - f_31 + f_13 - f_41 + f_14 + f_02 - f_20
       - f_42 + f_24 + f_03 - f_30 - f_63 + f_36 + f_04 - f_40 - f_54 + f_45
       + f_05 - f_50 + f_06 - f_60 <= 1
 c45:  - f_73 + f_37 - f_74 + f_47 - f_76 + f_67 + f_07 - f_70 + f_87 - f_78
       + f_97 - f_79 + f_107 - f_710 <= 1
 c46:  f_01 - f_10 - f_21 + f_12 - f_31 + f_13 - f_41 + f_14 + f_02 - f_20
       - f_42 + f_24 + f_03 - f_30 - f_63 + f_36 - f_73 + f_37 + f_04 - f_40
       - f_54 + f_45 - f_74 + f_47 + f_05 - f_50 + f_06 - f_60 - f_76 + f_67
       + f_07 - f_70 <= 1
 c47:  - f_81 + f_18 - f_86 + f_68 - f_87 + f_78 + f_08 - f_80 + f_98 - f_89
       <= 1
 c48:  f_01 - f_10 - f_21 + f_12 - f_31 + f_13 - f_41 + f_14 - f_81 + f_18
       + f_02 - f_20 - f_42 + f_24 + f_03 - f_30 - f_63 + f_36 - f_73 + f_37
       + f_04 - f_40 - f_54 + f_45 - f_74 + f_47 + f_05 - f_50 + f_06 - f_60
       - f_76 + f_67 - f_86 + f_68 + f_07 - f_70 - f_87 + f_78 + f_08 - f_80
       <= 1
 c49:  - f_92 + f_29 - f_94 + f_49 - f_95 + f_59 - f_96 + f_69 - f_97 + f_79
       - f_98 + f_89 + f_09 - f_90 + f_109 - f_910 <= 1
 c50:  f_01 - f_10 - f_21 + f_12 - f_31 + f_13 - f_41 + f_14 - f_81 + f_18
       + f_02 - f_20 - f_42 + f_24 - f_92 + f_29 + f_03 - f_30 - f_63 + f_36
       - f_73 + f_37 + f_04 - f_40 - f_54 + f_45 - f_74 + f_47 - f_94 + f_49
       + f_05 - f_50 - f_95 + f_59 + f_06 - f_60 - f_76 + f_67 - f_86 + f_68
       - f_96 + f_69 + f_07 - f_70 - f_87 + f_78 - f_97 + f_79 + f_08 - f_80
       - f_98 + f_89 + f_09 - f_90 <= 1
 c51:  - f_105 + f_510 - f_106 + f_610 - f_107 + f_710 - f_109 + f_910 + f_010
       - f_100 <= 1
 c52:  f_01 - f_10 - f_21 + f_12 - f_31 + f_13 - f_41 + f_14 - f_81 + f_18
       + f_02 - f_20 - f_42 + f_24 - f_92 + f_29 + f_03 - f_30 - f_63 + f_36
       - f_73 + f_37 + f_04 - f_40 - f_54 + f_45 - f_74 + f_47 - f_94 + f_49
       + f_05 - f_50 - f_95 + f_59 - f_105 + f_510 + f_06 - f_60 - f_76 + f_67
       - f_86 + f_68 - f_96 + f_69 - f_106 + f_610 + f_07 - f_70 - f_87 + f_78
       - f_97 + f_79 - f_107 + f_710 + f_08 - f_80 - f_98 + f_89 + f_09 - f_90
       - f_109 + f_910 + f_010 - f_100 <= 1
 c53:  x_0 + x_1 + x_2 + x_3 + x_4 + x_5 + x_6 + x_7 + x_8 + x_9  = 1
 c54:  f_01 + f_02 + f_03 + f_04 + f_05 + f_06 + f_07 + f_08 + f_09 + f_010
        = 5
 c55:  f_01 >= 0
 c56:  - 5 y_01 + f_01 <= 0
 c57:  f_10 >= 0
 c58:  - 5 y_10 + f_10 <= 0
 c59:  f_02 >= 0
 c60:  - 5 y_02 + f_02 <= 0
 c61:  f_20 >= 0
 c62:  - 5 y_20 + f_20 <= 0
 c63:  f_03 >= 0
 c64:  - 5 y_03 + f_03 <= 0
 c65:  f_30 >= 0
 c66:  - 5 y_30 + f_30 <= 0
 c67:  f_04 >= 0
 c68:  - 5 y_04 + f_04 <= 0
 c69:  f_40 >= 0
 c70:  - 5 y_40 + f_40 <= 0
 c71:  f_05 >= 0
 c72:  - 5 y_05 + f_05 <= 0
 c73:  f_50 >= 0
 c74:  - 5 y_50 + f_50 <= 0
 c75:  f_06 >= 0
 c76:  - 5 y_06 + f_06 <= 0
 c77:  f_60 >= 0
 c78:  - 5 y_60 + f_60 <= 0
 c79:  f_07 >= 0
 c80:  - 5 y_07 + f_07 <= 0
 c81:  f_70 >= 0
 c82:  - 5 y_70 + f_70 <= 0
 c83:  f_08 >= 0
 c84:  - 5 y_08 + f_08 <= 0
 c85:  f_80 >= 0
 c86:  - 5 y_80 + f_80 <= 0
 c87:  f_09 >= 0
 c88:  - 5 y_09 + f_09 <= 0
 c89:  f_90 >= 0
 c90:  - 5 y_90 + f_90 <= 0
 c91:  f_010 >= 0
 c92:  - 5 y_010 + f_010 <= 0
 c93:  f_100 >= 0
 c94:  - 5 y_100 + f_100 <= 0
 c95:  f_12 >= 0
 c96:  - 5 y_12 + f_12 <= 0
 c97:  f_21 >= 0
 c98:  - 5 y_21 + f_21 <= 0
 c99:  f_13 >= 0
 c100: - 5 y_13 + f_13 <= 0
 c101: f_31 >= 0
 c102: - 5 y_31 + f_31 <= 0
 c103: f_14 >= 0
 c104: - 5 y_14 + f_14 <= 0
 c105: f_41 >= 0
 c106: - 5 y_41 + f_41 <= 0
 c107: f_18 >= 0
 c108: - 5 y_18 + f_18 <= 0
 c109: f_81 >= 0
 c110: - 5 y_81 + f_81 <= 0
 c111: f_24 >= 0
 c112: - 5 y_24 + f_24 <= 0
 c113: f_42 >= 0
 c114: - 5 y_42 + f_42 <= 0
 c115: f_29 >= 0
 c116: - 5 y_29 + f_29 <= 0
 c117: f_92 >= 0
 c118: - 5 y_92 + f_92 <= 0
 c119: f_36 >= 0
 c120: - 5 y_36 + f_36 <= 0
 c121: f_63 >= 0
 c122: - 5 y_63 + f_63 <= 0
 c123: f_37 >= 0
 c124: - 5 y_37 + f_37 <= 0
 c125: f_73 >= 0
 c126: - 5 y_73 + f_73 <= 0
 c127: f_45 >= 0
 c128: - 5 y_45 + f_45 <= 0
 c129: f_54 >= 0
 c130: - 5 y_54 + f_54 <= 0
 c131: f_47 >= 0
 c132: - 5 y_47 + f_47 <= 0
 c133: f_74 >= 0
 c134: - 5 y_74 + f_74 <= 0
 c135: f_49 >= 0
 c136: - 5 y_49 + f_49 <= 0
 c137: f_94 >= 0
 c138: - 5 y_94 + f_94 <= 0
 c139: f_59 >= 0
 c140: - 5 y_59 + f_59 <= 0
 c141: f_95 >= 0
 c142: - 5 y_95 + f_95 <= 0
 c143: f_510 >= 0
 c144: - 5 y_510 + f_510 <= 0
 c145: f_105 >= 0
 c146: - 5 y_105 + f_105 <= 0
 c147: f_67 >= 0
 c148: - 5 y_67 + f_67 <= 0
 c149: f_76 >= 0
 c150: - 5 y_76 + f_76 <= 0
 c151: f_68 >= 0
 c152: - 5 y_68 + f_68 <= 0
 c153: f_86 >= 0
 c154: - 5 y_86 + f_86 <= 0
 c155: f_69 >= 0
 c156: - 5 y_69 + f_69 <= 0
 c157: f_96 >= 0
 c158: - 5 y_96 + f_96 <= 0
 c159: f_610 >= 0
 c160: - 5 y_610 + f_610 <= 0
 c161: f_106 >= 0
 c162: - 5 y_106 + f_106 <= 0
 c163: f_78 >= 0
 c164: - 5 y_78 + f_78 <= 0
 c165: f_87 >= 0
 c166: - 5 y_87 + f_87 <= 0
 c167: f_79 >= 0
 c168: - 5 y_79 + f_79 <= 0
 c169: f_97 >= 0
 c170: - 5 y_97 + f_97 <= 0
 c171: f_710 >= 0
 c172: - 5 y_710 + f_710 <= 0
 c173: f_107 >= 0
 c174: - 5 y_107 + f_107 <= 0
 c175: f_89 >= 0
 c176: - 5 y_89 + f_89 <= 0
 c177: f_98 >= 0
 c178: - 5 y_98 + f_98 <= 0
 c179: f_910 >= 0
 c180: - 5 y_910 + f_910 <= 0
 c181: f_109 >= 0
 c182: - 5 y_109 + f_109 <= 0
Bounds
 0 <= y_01 <= 1
 0 <= y_10 <= 1
      x_0 >= 0
 0 <= y_02 <= 1
 0 <= y_20 <= 1
      x_1 >= 0
 0 <= y_03 <= 1
 0 <= y_30 <= 1
      x_2 >= 0
 0 <= y_04 <= 1
 0 <= y_40 <= 1
      x_3 >= 0
 0 <= y_05 <= 1
 0 <= y_50 <= 1
      x_4 >= 0
 0 <= y_06 <= 1
 0 <= y_60 <= 1
      x_5 >= 0
 0 <= y_07 <= 1
 0 <= y_70 <= 1
      x_6 >= 0
 0 <= y_08 <= 1
 0 <= y_80 <= 1
      x_7 >= 0
 0 <= y_09 <= 1
 0 <= y_90 <= 1
      x_8 >= 0
 0 <= y_010 <= 1
 0 <= y_100 <= 1
      x_9 >= 0
 0 <= y_12 <= 1
 0 <= y_21 <= 1
      x_10 >= 0
 0 <= y_13 <= 1
 0 <= y_31 <= 1
      x_11 >= 0
 0 <= y_14 <= 1
 0 <= y_41 <= 1
      x_12 >= 0
 0 <= y_18 <= 1
 0 <= y_81 <= 1
      x_13 >= 0
 0 <= y_24 <= 1
 0 <= y_42 <= 1
      x_14 >= 0
 0 <= y_29 <= 1
 0 <= y_92 <= 1
      x_15 >= 0
 0 <= y_36 <= 1
 0 <= y_63 <= 1
      x_16 >= 0
 0 <= y_37 <= 1
 0 <= y_73 <= 1
      x_17 >= 0
 0 <= y_45 <= 1
 0 <= y_54 <= 1
      x_18 >= 0
 0 <= y_47 <= 1
 0 <= y_74 <= 1
      x_19 >= 0
 0 <= y_49 <= 1
 0 <= y_94 <= 1
      x_20 >= 0
 0 <= y_59 <= 1
 0 <= y_95 <= 1
      x_21 >= 0
 0 <= y_510 <= 1
 0 <= y_105 <= 1
      x_22 >= 0
 0 <= y_67 <= 1
 0 <= y_76 <= 1
      x_23 >= 0
 0 <= y_68 <= 1
 0 <= y_86 <= 1
      x_24 >= 0
 0 <= y_69 <= 1
 0 <= y_96 <= 1
      x_25 >= 0
 0 <= y_610 <= 1
 0 <= y_106 <= 1
      x_26 >= 0
 0 <= y_78 <= 1
 0 <= y_87 <= 1
      x_27 >= 0
 0 <= y_79 <= 1
 0 <= y_97 <= 1
      x_28 >= 0
 0 <= y_710 <= 1
 0 <= y_107 <= 1
      x_29 >= 0
 0 <= y_89 <= 1
 0 <= y_98 <= 1
      x_30 >= 0
 0 <= y_910 <= 1
 0 <= y_109 <= 1
      x_31 >= 0
      f_01 >= 0
      f_10 >= 0
      f_21 >= 0
      f_12 >= 0
      f_31 >= 0
      f_13 >= 0
      f_41 >= 0
      f_14 >= 0
      f_81 >= 0
      f_18 >= 0
      f_02 >= 0
      f_20 >= 0
      f_42 >= 0
      f_24 >= 0
      f_92 >= 0
      f_29 >= 0
      f_03 >= 0
      f_30 >= 0
      f_63 >= 0
      f_36 >= 0
      f_73 >= 0
      f_37 >= 0
      f_04 >= 0
      f_40 >= 0
      f_54 >= 0
      f_45 >= 0
      f_74 >= 0
      f_47 >= 0
      f_94 >= 0
      f_49 >= 0
      f_05 >= 0
      f_50 >= 0
      f_95 >= 0
      f_59 >= 0
      f_105 >= 0
      f_510 >= 0
      f_06 >= 0
      f_60 >= 0
      f_76 >= 0
      f_67 >= 0
      f_86 >= 0
      f_68 >= 0
      f_96 >= 0
      f_69 >= 0
      f_106 >= 0
      f_610 >= 0
      f_07 >= 0
      f_70 >= 0
      f_87 >= 0
      f_78 >= 0
      f_97 >= 0
      f_79 >= 0
      f_107 >= 0
      f_710 >= 0
      f_08 >= 0
      f_80 >= 0
      f_98 >= 0
      f_89 >= 0
      f_09 >= 0
      f_90 >= 0
      f_109 >= 0
      f_910 >= 0
      f_010 >= 0
      f_100 >= 0
Binaries
 y_01  y_10  y_02  y_20  y_03  y_30  y_04  y_40  y_05  y_50  y_06  y_60  y_07 
 y_70  y_08  y_80  y_09  y_90  y_010  y_100  y_12  y_21  y_13  y_31  y_14 
 y_41  y_18  y_81  y_24  y_42  y_29  y_92  y_36  y_63  y_37  y_73  y_45  y_54 
 y_47  y_74  y_49  y_94  y_59  y_95  y_510  y_105  y_67  y_76  y_68  y_86 
 y_69  y_96  y_610  y_106  y_78  y_87  y_79  y_97  y_710  y_107  y_89  y_98 
 y_910  y_109 
Generals
 x_0  x_1  x_2  x_3  x_4  x_5  x_6  x_7  x_8  x_9  x_10  x_11  x_12  x_13 
 x_14  x_15  x_16  x_17  x_18  x_19  x_20  x_21  x_22  x_23  x_24  x_25  x_26 
 x_27  x_28  x_29  x_30  x_31  f_01  f_10  f_21  f_12  f_31  f_13  f_41  f_14 
 f_81  f_18  f_02  f_20  f_42  f_24  f_92  f_29  f_03  f_30  f_63  f_36  f_73 
 f_37  f_04  f_40  f_54  f_45  f_74  f_47  f_94  f_49  f_05  f_50  f_95  f_59 
 f_105  f_510  f_06  f_60  f_76  f_67  f_86  f_68  f_96  f_69  f_106  f_610 
 f_07  f_70  f_87  f_78  f_97  f_79  f_107  f_710  f_08  f_80  f_98  f_89 
 f_09  f_90  f_109  f_910  f_010  f_100 
End
